100
150
120
120
120
119
119
116
116
115
115
114
114
112
112
111
111
109
108
107
107
107
107
106
106
105
104
101
101
97
96
95
92
92
92
89
88
88
87
85
84
84
84
82
82
81
81
80
80
80
78
77
76
76
74
73
73
73
70
68
67
66
65
64
63
61
61
61
60
56
56
52
52
51
50
49
48
47
47
46
44
43
40
40
39
39
39
39
38
38
37
37
36
35
35
35
34
33
33
30
30
30
